Version identifier: 20.1.0.0 | 2020-11-10 | 9bedb6d68
Tried aggregator 2 times.
MIP Presolve eliminated 1872 rows and 1005 columns.
MIP Presolve modified 4756 coefficients.
Aggregator did 198 substitutions.
Reduced MIP has 2739 rows, 2112 columns, and 8998 nonzeros.
Reduced MIP has 378 binaries, 1734 generals, 0 SOSs, and 0 indicators.
Presolve time = 0.02 sec. (10.67 ticks)
Probing fixed 60 vars, tightened 620 bounds.
Probing time = 0.00 sec. (1.94 ticks)
Tried aggregator 1 time.
Detecting symmetries...
MIP Presolve eliminated 1170 rows and 60 columns.
MIP Presolve modified 141 coefficients.
Reduced MIP has 1569 rows, 2052 columns, and 5128 nonzeros.
Reduced MIP has 592 binaries, 1460 generals, 0 SOSs, and 0 indicators.
Presolve time = 0.01 sec. (5.76 ticks)
Probing time = 0.00 sec. (0.42 ticks)
Clique table members: 65.
MIP emphasis: balance optimality and feasibility.
MIP search method: dynamic search.
Parallel mode: deterministic, using up to 24 threads.
Root relaxation solution time = 0.02 sec. (5.25 ticks)

        Nodes                                         Cuts/
   Node  Left     Objective  IInf  Best Integer    Best Bound    ItCnt     Gap

      0     0        0.0000    80                      0.0000      468         
      0     0        0.0000    64                   Cuts: 151      563         
*     0+    0                           26.0000        0.0000           100.00%
*     0+    0                           12.0000        0.0000           100.00%
      0     0        0.0000    67       12.0000     Cuts: 137      742   50.00%
      0     0        0.0000    73       12.0000      Cuts: 56      783   50.00%
*     0+    0                           11.0000        6.0000            45.45%
      0     0        cutoff             11.0000       11.0000      783    0.00%
Elapsed time = 0.76 sec. (165.58 ticks, tree = 0.01 MB, solutions = 3)

Implied bound cuts applied:  59
Flow cuts applied:  3
Mixed integer rounding cuts applied:  20
Zero-half cuts applied:  73
Lift and project cuts applied:  14
Gomory fractional cuts applied:  35

Root node processing (before b&c):
  Real time             =    0.76 sec. (165.75 ticks)
Parallel b&c, 24 threads:
  Real time             =    0.00 sec. (0.00 ticks)
  Sync time (average)   =    0.00 sec.
  Wait time (average)   =    0.00 sec.
                          ------------
Total (root+branch&cut) =    0.76 sec. (165.75 ticks)

Solution status = Optimal
Solution LB = 11
Solution UB = 11
Runtime = 0.765426 seconds
	Command being timed: "/home/min/git_repos/CS598MEBProject/CNT-ILP/build/cnt -s 2 ./output/k8_n30/simC_c1_k8_n30_u1_s2_del04.input-right.cnp"
	User time (seconds): 9.51
	System time (seconds): 0.11
	Percent of CPU this job got: 1192%
	Elapsed (wall clock) time (h:mm:ss or m:ss): 0:00.80
	Average shared text size (kbytes): 0
	Average unshared data size (kbytes): 0
	Average stack size (kbytes): 0
	Average total size (kbytes): 0
	Maximum resident set size (kbytes): 128364
	Average resident set size (kbytes): 0
	Major (requiring I/O) page faults: 0
	Minor (reclaiming a frame) page faults: 29881
	Voluntary context switches: 5393
	Involuntary context switches: 1164
	Swaps: 0
	File system inputs: 0
	File system outputs: 16
	Socket messages sent: 0
	Socket messages received: 0
	Signals delivered: 0
	Page size (bytes): 4096
	Exit status: 0
